p cnf 180 780
1 2 3 0 
-1 -2 0 
-1 -3 0 
-2 -3 0 
-4 -1 0 
-5 -2 0 
-6 -3 0 
-58 -1 0 
-59 -2 0 
-60 -3 0 
-64 -1 0 
-65 -2 0 
-66 -3 0 
4 5 6 0 
-4 -5 0 
-4 -6 0 
-5 -6 0 
-7 -4 0 
-8 -5 0 
-9 -6 0 
-1 -4 0 
-2 -5 0 
-3 -6 0 
-61 -4 0 
-62 -5 0 
-63 -6 0 
7 8 9 0 
-7 -8 0 
-7 -9 0 
-8 -9 0 
-10 -7 0 
-11 -8 0 
-12 -9 0 
-4 -7 0 
-5 -8 0 
-6 -9 0 
-70 -7 0 
-71 -8 0 
-72 -9 0 
10 11 12 0 
-10 -11 0 
-10 -12 0 
-11 -12 0 
-13 -10 0 
-14 -11 0 
-15 -12 0 
-7 -10 0 
-8 -11 0 
-9 -12 0 
-67 -10 0 
-68 -11 0 
-69 -12 0 
13 14 15 0 
-13 -14 0 
-13 -15 0 
-14 -15 0 
-16 -13 0 
-17 -14 0 
-18 -15 0 
-10 -13 0 
-11 -14 0 
-12 -15 0 
-76 -13 0 
-77 -14 0 
-78 -15 0 
16 17 18 0 
-16 -17 0 
-16 -18 0 
-17 -18 0 
-19 -16 0 
-20 -17 0 
-21 -18 0 
-13 -16 0 
-14 -17 0 
-15 -18 0 
-73 -16 0 
-74 -17 0 
-75 -18 0 
19 20 21 0 
-19 -20 0 
-19 -21 0 
-20 -21 0 
-22 -19 0 
-23 -20 0 
-24 -21 0 
-16 -19 0 
-17 -20 0 
-18 -21 0 
-82 -19 0 
-83 -20 0 
-84 -21 0 
22 23 24 0 
-22 -23 0 
-22 -24 0 
-23 -24 0 
-25 -22 0 
-26 -23 0 
-27 -24 0 
-19 -22 0 
-20 -23 0 
-21 -24 0 
-79 -22 0 
-80 -23 0 
-81 -24 0 
25 26 27 0 
-25 -26 0 
-25 -27 0 
-26 -27 0 
-28 -25 0 
-29 -26 0 
-30 -27 0 
-22 -25 0 
-23 -26 0 
-24 -27 0 
-88 -25 0 
-89 -26 0 
-90 -27 0 
28 29 30 0 
-28 -29 0 
-28 -30 0 
-29 -30 0 
-31 -28 0 
-32 -29 0 
-33 -30 0 
-25 -28 0 
-26 -29 0 
-27 -30 0 
-85 -28 0 
-86 -29 0 
-87 -30 0 
31 32 33 0 
-31 -32 0 
-31 -33 0 
-32 -33 0 
-34 -31 0 
-35 -32 0 
-36 -33 0 
-28 -31 0 
-29 -32 0 
-30 -33 0 
-94 -31 0 
-95 -32 0 
-96 -33 0 
34 35 36 0 
-34 -35 0 
-34 -36 0 
-35 -36 0 
-37 -34 0 
-38 -35 0 
-39 -36 0 
-31 -34 0 
-32 -35 0 
-33 -36 0 
-91 -34 0 
-92 -35 0 
-93 -36 0 
37 38 39 0 
-37 -38 0 
-37 -39 0 
-38 -39 0 
-40 -37 0 
-41 -38 0 
-42 -39 0 
-34 -37 0 
-35 -38 0 
-36 -39 0 
-100 -37 0 
-101 -38 0 
-102 -39 0 
40 41 42 0 
-40 -41 0 
-40 -42 0 
-41 -42 0 
-43 -40 0 
-44 -41 0 
-45 -42 0 
-37 -40 0 
-38 -41 0 
-39 -42 0 
-97 -40 0 
-98 -41 0 
-99 -42 0 
43 44 45 0 
-43 -44 0 
-43 -45 0 
-44 -45 0 
-46 -43 0 
-47 -44 0 
-48 -45 0 
-40 -43 0 
-41 -44 0 
-42 -45 0 
-106 -43 0 
-107 -44 0 
-108 -45 0 
46 47 48 0 
-46 -47 0 
-46 -48 0 
-47 -48 0 
-49 -46 0 
-50 -47 0 
-51 -48 0 
-43 -46 0 
-44 -47 0 
-45 -48 0 
-103 -46 0 
-104 -47 0 
-105 -48 0 
49 50 51 0 
-49 -50 0 
-49 -51 0 
-50 -51 0 
-52 -49 0 
-53 -50 0 
-54 -51 0 
-46 -49 0 
-47 -50 0 
-48 -51 0 
-112 -49 0 
-113 -50 0 
-114 -51 0 
52 53 54 0 
-52 -53 0 
-52 -54 0 
-53 -54 0 
-55 -52 0 
-56 -53 0 
-57 -54 0 
-49 -52 0 
-50 -53 0 
-51 -54 0 
-109 -52 0 
-110 -53 0 
-111 -54 0 
55 56 57 0 
-55 -56 0 
-55 -57 0 
-56 -57 0 
-58 -55 0 
-59 -56 0 
-60 -57 0 
-52 -55 0 
-53 -56 0 
-54 -57 0 
-118 -55 0 
-119 -56 0 
-120 -57 0 
58 59 60 0 
-58 -59 0 
-58 -60 0 
-59 -60 0 
-1 -58 0 
-2 -59 0 
-3 -60 0 
-55 -58 0 
-56 -59 0 
-57 -60 0 
-115 -58 0 
-116 -59 0 
-117 -60 0 
61 62 63 0 
-61 -62 0 
-61 -63 0 
-62 -63 0 
-4 -61 0 
-5 -62 0 
-6 -63 0 
-124 -61 0 
-125 -62 0 
-126 -63 0 
-118 -61 0 
-119 -62 0 
-120 -63 0 
64 65 66 0 
-64 -65 0 
-64 -66 0 
-65 -66 0 
-67 -64 0 
-68 -65 0 
-69 -66 0 
-1 -64 0 
-2 -65 0 
-3 -66 0 
-121 -64 0 
-122 -65 0 
-123 -66 0 
67 68 69 0 
-67 -68 0 
-67 -69 0 
-68 -69 0 
-10 -67 0 
-11 -68 0 
-12 -69 0 
-127 -67 0 
-128 -68 0 
-129 -69 0 
-64 -67 0 
-65 -68 0 
-66 -69 0 
70 71 72 0 
-70 -71 0 
-70 -72 0 
-71 -72 0 
-73 -70 0 
-74 -71 0 
-75 -72 0 
-7 -70 0 
-8 -71 0 
-9 -72 0 
-124 -70 0 
-125 -71 0 
-126 -72 0 
73 74 75 0 
-73 -74 0 
-73 -75 0 
-74 -75 0 
-16 -73 0 
-17 -74 0 
-18 -75 0 
-130 -73 0 
-131 -74 0 
-132 -75 0 
-70 -73 0 
-71 -74 0 
-72 -75 0 
76 77 78 0 
-76 -77 0 
-76 -78 0 
-77 -78 0 
-79 -76 0 
-80 -77 0 
-81 -78 0 
-13 -76 0 
-14 -77 0 
-15 -78 0 
-127 -76 0 
-128 -77 0 
-129 -78 0 
79 80 81 0 
-79 -80 0 
-79 -81 0 
-80 -81 0 
-22 -79 0 
-23 -80 0 
-24 -81 0 
-133 -79 0 
-134 -80 0 
-135 -81 0 
-76 -79 0 
-77 -80 0 
-78 -81 0 
82 83 84 0 
-82 -83 0 
-82 -84 0 
-83 -84 0 
-85 -82 0 
-86 -83 0 
-87 -84 0 
-19 -82 0 
-20 -83 0 
-21 -84 0 
-130 -82 0 
-131 -83 0 
-132 -84 0 
85 86 87 0 
-85 -86 0 
-85 -87 0 
-86 -87 0 
-28 -85 0 
-29 -86 0 
-30 -87 0 
-136 -85 0 
-137 -86 0 
-138 -87 0 
-82 -85 0 
-83 -86 0 
-84 -87 0 
88 89 90 0 
-88 -89 0 
-88 -90 0 
-89 -90 0 
-91 -88 0 
-92 -89 0 
-93 -90 0 
-25 -88 0 
-26 -89 0 
-27 -90 0 
-133 -88 0 
-134 -89 0 
-135 -90 0 
91 92 93 0 
-91 -92 0 
-91 -93 0 
-92 -93 0 
-34 -91 0 
-35 -92 0 
-36 -93 0 
-139 -91 0 
-140 -92 0 
-141 -93 0 
-88 -91 0 
-89 -92 0 
-90 -93 0 
94 95 96 0 
-94 -95 0 
-94 -96 0 
-95 -96 0 
-97 -94 0 
-98 -95 0 
-99 -96 0 
-31 -94 0 
-32 -95 0 
-33 -96 0 
-136 -94 0 
-137 -95 0 
-138 -96 0 
97 98 99 0 
-97 -98 0 
-97 -99 0 
-98 -99 0 
-40 -97 0 
-41 -98 0 
-42 -99 0 
-142 -97 0 
-143 -98 0 
-144 -99 0 
-94 -97 0 
-95 -98 0 
-96 -99 0 
100 101 102 0 
-100 -101 0 
-100 -102 0 
-101 -102 0 
-103 -100 0 
-104 -101 0 
-105 -102 0 
-37 -100 0 
-38 -101 0 
-39 -102 0 
-139 -100 0 
-140 -101 0 
-141 -102 0 
103 104 105 0 
-103 -104 0 
-103 -105 0 
-104 -105 0 
-46 -103 0 
-47 -104 0 
-48 -105 0 
-145 -103 0 
-146 -104 0 
-147 -105 0 
-100 -103 0 
-101 -104 0 
-102 -105 0 
106 107 108 0 
-106 -107 0 
-106 -108 0 
-107 -108 0 
-109 -106 0 
-110 -107 0 
-111 -108 0 
-43 -106 0 
-44 -107 0 
-45 -108 0 
-142 -106 0 
-143 -107 0 
-144 -108 0 
109 110 111 0 
-109 -110 0 
-109 -111 0 
-110 -111 0 
-52 -109 0 
-53 -110 0 
-54 -111 0 
-148 -109 0 
-149 -110 0 
-150 -111 0 
-106 -109 0 
-107 -110 0 
-108 -111 0 
112 113 114 0 
-112 -113 0 
-112 -114 0 
-113 -114 0 
-115 -112 0 
-116 -113 0 
-117 -114 0 
-49 -112 0 
-50 -113 0 
-51 -114 0 
-145 -112 0 
-146 -113 0 
-147 -114 0 
115 116 117 0 
-115 -116 0 
-115 -117 0 
-116 -117 0 
-58 -115 0 
-59 -116 0 
-60 -117 0 
-121 -115 0 
-122 -116 0 
-123 -117 0 
-112 -115 0 
-113 -116 0 
-114 -117 0 
118 119 120 0 
-118 -119 0 
-118 -120 0 
-119 -120 0 
-61 -118 0 
-62 -119 0 
-63 -120 0 
-55 -118 0 
-56 -119 0 
-57 -120 0 
-148 -118 0 
-149 -119 0 
-150 -120 0 
121 122 123 0 
-121 -122 0 
-121 -123 0 
-122 -123 0 
-64 -121 0 
-65 -122 0 
-66 -123 0 
-151 -121 0 
-152 -122 0 
-153 -123 0 
-115 -121 0 
-116 -122 0 
-117 -123 0 
124 125 126 0 
-124 -125 0 
-124 -126 0 
-125 -126 0 
-70 -124 0 
-71 -125 0 
-72 -126 0 
-154 -124 0 
-155 -125 0 
-156 -126 0 
-61 -124 0 
-62 -125 0 
-63 -126 0 
127 128 129 0 
-127 -128 0 
-127 -129 0 
-128 -129 0 
-76 -127 0 
-77 -128 0 
-78 -129 0 
-157 -127 0 
-158 -128 0 
-159 -129 0 
-67 -127 0 
-68 -128 0 
-69 -129 0 
130 131 132 0 
-130 -131 0 
-130 -132 0 
-131 -132 0 
-82 -130 0 
-83 -131 0 
-84 -132 0 
-160 -130 0 
-161 -131 0 
-162 -132 0 
-73 -130 0 
-74 -131 0 
-75 -132 0 
133 134 135 0 
-133 -134 0 
-133 -135 0 
-134 -135 0 
-88 -133 0 
-89 -134 0 
-90 -135 0 
-163 -133 0 
-164 -134 0 
-165 -135 0 
-79 -133 0 
-80 -134 0 
-81 -135 0 
136 137 138 0 
-136 -137 0 
-136 -138 0 
-137 -138 0 
-94 -136 0 
-95 -137 0 
-96 -138 0 
-166 -136 0 
-167 -137 0 
-168 -138 0 
-85 -136 0 
-86 -137 0 
-87 -138 0 
139 140 141 0 
-139 -140 0 
-139 -141 0 
-140 -141 0 
-100 -139 0 
-101 -140 0 
-102 -141 0 
-169 -139 0 
-170 -140 0 
-171 -141 0 
-91 -139 0 
-92 -140 0 
-93 -141 0 
142 143 144 0 
-142 -143 0 
-142 -144 0 
-143 -144 0 
-106 -142 0 
-107 -143 0 
-108 -144 0 
-172 -142 0 
-173 -143 0 
-174 -144 0 
-97 -142 0 
-98 -143 0 
-99 -144 0 
145 146 147 0 
-145 -146 0 
-145 -147 0 
-146 -147 0 
-112 -145 0 
-113 -146 0 
-114 -147 0 
-175 -145 0 
-176 -146 0 
-177 -147 0 
-103 -145 0 
-104 -146 0 
-105 -147 0 
148 149 150 0 
-148 -149 0 
-148 -150 0 
-149 -150 0 
-118 -148 0 
-119 -149 0 
-120 -150 0 
-178 -148 0 
-179 -149 0 
-180 -150 0 
-109 -148 0 
-110 -149 0 
-111 -150 0 
151 152 153 0 
-151 -152 0 
-151 -153 0 
-152 -153 0 
-121 -151 0 
-122 -152 0 
-123 -153 0 
-157 -151 0 
-158 -152 0 
-159 -153 0 
-175 -151 0 
-176 -152 0 
-177 -153 0 
154 155 156 0 
-154 -155 0 
-154 -156 0 
-155 -156 0 
-124 -154 0 
-125 -155 0 
-126 -156 0 
-160 -154 0 
-161 -155 0 
-162 -156 0 
-178 -154 0 
-179 -155 0 
-180 -156 0 
157 158 159 0 
-157 -158 0 
-157 -159 0 
-158 -159 0 
-127 -157 0 
-128 -158 0 
-129 -159 0 
-163 -157 0 
-164 -158 0 
-165 -159 0 
-151 -157 0 
-152 -158 0 
-153 -159 0 
160 161 162 0 
-160 -161 0 
-160 -162 0 
-161 -162 0 
-130 -160 0 
-131 -161 0 
-132 -162 0 
-166 -160 0 
-167 -161 0 
-168 -162 0 
-154 -160 0 
-155 -161 0 
-156 -162 0 
163 164 165 0 
-163 -164 0 
-163 -165 0 
-164 -165 0 
-133 -163 0 
-134 -164 0 
-135 -165 0 
-163 -163 0 
-164 -164 0 
-165 -165 0 
-157 -163 0 
-158 -164 0 
-159 -165 0 
166 167 168 0 
-166 -167 0 
-166 -168 0 
-167 -168 0 
-136 -166 0 
-137 -167 0 
-138 -168 0 
-166 -166 0 
-167 -167 0 
-168 -168 0 
-160 -166 0 
-161 -167 0 
-162 -168 0 
169 170 171 0 
-169 -170 0 
-169 -171 0 
-170 -171 0 
-139 -169 0 
-140 -170 0 
-141 -171 0 
-169 -169 0 
-170 -170 0 
-171 -171 0 
-163 -169 0 
-164 -170 0 
-165 -171 0 
172 173 174 0 
-172 -173 0 
-172 -174 0 
-173 -174 0 
-142 -172 0 
-143 -173 0 
-144 -174 0 
-172 -172 0 
-173 -173 0 
-174 -174 0 
-166 -172 0 
-167 -173 0 
-168 -174 0 
175 176 177 0 
-175 -176 0 
-175 -177 0 
-176 -177 0 
-145 -175 0 
-146 -176 0 
-147 -177 0 
-175 -175 0 
-176 -176 0 
-177 -177 0 
-169 -175 0 
-170 -176 0 
-171 -177 0 
178 179 180 0 
-178 -179 0 
-178 -180 0 
-179 -180 0 
-148 -178 0 
-149 -179 0 
-150 -180 0 
-154 -178 0 
-155 -179 0 
-156 -180 0 
-172 -178 0 
-173 -179 0 
-174 -180 0 
